experiments/eusolverbv/0/DirectTrainGenes/0110111100101101100111010001101111100001001/335_.sl

(set-logic BV)

(define-fun shr1 ((x (BitVec 64))) (BitVec 64) (bvlshr x #x0000000000000001))
(define-fun shr4 ((x (BitVec 64))) (BitVec 64) (bvlshr x #x0000000000000004))
(define-fun shr16 ((x (BitVec 64))) (BitVec 64) (bvlshr x #x0000000000000010))
(define-fun shl1 ((x (BitVec 64))) (BitVec 64) (bvshl x #x0000000000000001))
(define-fun if0 ((x (BitVec 64)) (y (BitVec 64)) (z (BitVec 64))) (BitVec 64) (ite (= x #x0000000000000001) y z))
(define-fun func23  ((A (BitVec 64)) (B (BitVec 64)) (C (BitVec 64)) (D (BitVec 64)) ) (BitVec 64) (bvand (bvlshr (bvlshr C  D ) B ) A ))
(define-fun func24  ((A (BitVec 64)) (B (BitVec 64)) (C (BitVec 64)) ) (BitVec 64) (bvand (bvlshr B  C ) A ))
(define-fun func25  ((A (BitVec 64)) (B (BitVec 64)) ) (BitVec 64) (bvand (bvlshr B  #x0000000000000001 ) A ))
(define-fun func26  ((A (BitVec 64)) (B (BitVec 64)) ) (BitVec 64) (bvand (bvlshr B  #x0000000000000010 ) A ))
(define-fun func27  ((A (BitVec 64)) (B (BitVec 64)) ) (BitVec 64) (bvand (bvlshr B  #x0000000000000004 ) A ))
(define-fun func28  ((A (BitVec 64)) (B (BitVec 64)) ) (BitVec 64) (bvand (bvlshr A  B ) #x0000000000000001 ))
(define-fun func29  ((A (BitVec 64)) ) (BitVec 64) (bvand A  #x0000000000000001 ))
(define-fun func30  ((A (BitVec 64)) (B (BitVec 64)) (C (BitVec 64)) (D (BitVec 64)) ) (BitVec 64) (bvlshr (bvlshr (bvlshr C  D ) B ) A ))
(define-fun func31  ((A (BitVec 64)) (B (BitVec 64)) (C (BitVec 64)) ) (BitVec 64) (bvlshr (bvlshr (bvlshr B  C ) A ) #x0000000000000004 ))
(define-fun func32  ((A (BitVec 64)) (B (BitVec 64)) (C (BitVec 64)) ) (BitVec 64) (bvlshr (bvlshr (bvlshr C  #x0000000000000010 ) B ) A ))
(define-fun func33  ((A (BitVec 64)) (B (BitVec 64)) (C (BitVec 64)) ) (BitVec 64) (bvlshr (bvlshr (bvlshr B  C ) #x0000000000000004 ) A ))
(define-fun func34  ((A (BitVec 64)) (B (BitVec 64)) (C (BitVec 64)) ) (BitVec 64) (bvlshr (bvlshr B  C ) A ))
(define-fun func35  ((A (BitVec 64)) (B (BitVec 64)) ) (BitVec 64) (bvlshr (bvlshr B  #x0000000000000010 ) A ))
(define-fun func36  ((A (BitVec 64)) (B (BitVec 64)) ) (BitVec 64) (bvlshr (bvlshr B  #x0000000000000004 ) A ))
(define-fun func37  ((A (BitVec 64)) (B (BitVec 64)) ) (BitVec 64) (bvlshr (bvlshr B  #x0000000000000001 ) A ))
(define-fun func38  ((A (BitVec 64)) (B (BitVec 64)) ) (BitVec 64) (bvlshr (bvlshr A  B ) #x0000000000000001 ))
(define-fun func39  ((A (BitVec 64)) (B (BitVec 64)) ) (BitVec 64) (bvlshr (bvlshr A  B ) #x0000000000000004 ))
(define-fun func40  ((A (BitVec 64)) (B (BitVec 64)) ) (BitVec 64) (bvlshr A  B ))
(define-fun func41  ((A (BitVec 64)) (B (BitVec 64)) (C (BitVec 64)) ) (BitVec 64) (bvlshr (bvshl B  C ) A ))
(define-fun func42  ((A (BitVec 64)) (B (BitVec 64)) ) (BitVec 64) (bvlshr (bvshl B  #x0000000000000001 ) A ))
(define-fun func43  ((A (BitVec 64)) (B (BitVec 64)) (C (BitVec 64)) ) (BitVec 64) (bvlshr (bvadd B  C ) A ))
(define-fun func44  ((A (BitVec 64)) (B (BitVec 64)) ) (BitVec 64) (bvlshr (bvnot B ) A ))
(define-fun func45  ((A (BitVec 64)) ) (BitVec 64) (bvlshr (bvnot A ) #x0000000000000010 ))
(define-fun func46  ((A (BitVec 64)) (B (BitVec 64)) (C (BitVec 64)) ) (BitVec 64) (bvor (bvlshr B  C ) A ))
(define-fun func47  ((A (BitVec 64)) ) (BitVec 64) (bvor A  #x0000000000000001 ))
(define-fun func48  ((A (BitVec 64)) (B (BitVec 64)) (C (BitVec 64)) ) (BitVec 64) (bvshl (bvlshr B  C ) A ))
(define-fun func49  ((A (BitVec 64)) (B (BitVec 64)) ) (BitVec 64) (bvshl (bvlshr B  #x0000000000000001 ) A ))
(define-fun func50  ((A (BitVec 64)) (B (BitVec 64)) ) (BitVec 64) (bvshl (bvlshr A  B ) #x0000000000000001 ))
(define-fun func52  ((A (BitVec 64)) (B (BitVec 64)) (C (BitVec 64)) ) (BitVec 64) (bvadd (bvlshr B  C ) A ))
(define-fun func53  ((A (BitVec 64)) ) (BitVec 64) (bvadd A  #x0000000000000001 ))
(define-fun func54  ((A (BitVec 64)) (B (BitVec 64)) (C (BitVec 64)) ) (BitVec 64) (bvadd (bvshl B  C ) A ))
(define-fun func55  ((A (BitVec 64)) (B (BitVec 64)) ) (BitVec 64) (bvadd (bvshl B  #x0000000000000001 ) A ))
(define-fun func56  ((A (BitVec 64)) ) (BitVec 64) (bvnot (bvshl A  #x0000000000000001 )))
(synth-fun f ( (x (BitVec 64))) (BitVec 64)
(
(Start (BitVec 64) (
   #x0000000000000000
   #x0000000000000001
   x
   (func24 Start Start Start)
   (func25 Start Start)
   (func27 Start Start)
   (func28 Start Start)
   (func29 Start)
   (func30 Start Start Start Start)
   (func33 Start Start Start)
   (func35 Start Start)
   (func36 Start Start)
   (func38 Start Start)
   (func39 Start Start)
   (func42 Start Start)
   (func43 Start Start Start)
   (func44 Start Start)
   (func46 Start Start Start)
   (func50 Start Start)
   (func52 Start Start Start)
   (func54 Start Start Start)
   (func55 Start Start)
   (func56 Start)
   (shr1 Start)
   (shr4 Start)
   (shr16 Start)
   (bvand Start Start)
   (bvxor Start Start)
   (bvadd Start Start)
   (if0 Start Start Start)
))
))
(constraint (= (f #x9bd1231054c0ff91) #xffffffffffffffff))
(constraint (= (f #xae2a4fd61ce7bc2c) #xfffffffffffffffe))
(constraint (= (f #xaaf02c6786496620) #xfffffffffffffffe))
(constraint (= (f #x58ef5a896289101c) #xfffffffffffffffe))
(constraint (= (f #x60d1b7681667132d) #xffffffffffffffff))
(constraint (= (f #x0000000000000001) #x0000000000000003))
(constraint (= (f #xfffffffffffffff8) #x0000000000000006))
(constraint (= (f #xfffffffffffffff9) #x0000000000000007))
(constraint (= (f #xc7904787d555e5e6) #xcfb0cf8fffffefee))
(constraint (= (f #xee86efcc77bb91ca) #xff8fffdcffffb3de))
(constraint (= (f #x76a3a8f0c689b94e) #xffe7f9f1cf9bfbde))
(constraint (= (f #x496098a743fda7ab) #xdbe1b9efc7ffefff))
(constraint (= (f #x35cd8badbe3edb1e) #x7fdf9ffffe7fff3e))
(constraint (= (f #xfffffffffffffffb) #xffffffffffffffff))
(constraint (= (f #xfffffffffffffffa) #xfffffffffffffffe))
(constraint (= (f #x219a5eb951273a10) #xfffffffffffffffe))
(constraint (= (f #xfd71488239f74355) #xffffffffffffffff))
(constraint (= (f #xfc00a5e3c337ac8c) #xfffffffffffffffe))
(constraint (= (f #x48ea8603a18734d6) #xd9ff8e07e38f7dfe))
(constraint (= (f #x4ebd449eada72dd6) #xdfffcdbfffef7ffe))
(constraint (= (f #xc1e00841980fbd39) #xffffffffffffffff))
(constraint (= (f #x34f459a4c32d9e80) #xfffffffffffffffe))
(constraint (= (f #xc35f7471f8795ce8) #xfffffffffffffffe))
(constraint (= (f #x0776ba36c3a03bb1) #xffffffffffffffff))
(constraint (= (f #x1d74be92152f2794) #xfffffffffffffffe))
(constraint (= (f #x0000000000000001) #x0000000000000003))
(constraint (= (f #xfffffffffffffff8) #x0000000000000006))
(constraint (= (f #xfffffffffffffff9) #x0000000000000007))
(constraint (= (f #xfffffffffffffffb) #xffffffffffffffff))
(check-synth)
