experiments/eusolverbv/0/DirectTrainGenes/0110111100101101100111010001101111100001001/335_.out
(define-fun f ((x (BitVec 64))) (BitVec 64)
     (if0 (func25 #x0000000000000001 x) (func46 (func42 #x0000000000000000 x) x #x0000000000000000) (if0 (func28 x (func56 x)) (func44 #x0000000000000000 (bvxor x #x0000000000000001)) (if0 (func29 x) (func56 (func44 (shr1 x) #x0000000000000001)) (func44 #x0000000000000000 #x0000000000000001)))))
34.98930727504194
